(declare-const X String)
; Host\x3A\sclvompycem\x2fcen\.vcn
(assert (str.in.re X (re.++ (str.to.re "Host:") (re.union (str.to.re " ") (str.to.re "\x09") (str.to.re "\x0a") (str.to.re "\x0c") (str.to.re "\x0d")) (str.to.re "clvompycem/cen.vcn\x0a"))))
; AdTools\sdownloadfile\x2eorg\w+com\x3E[^\n\r]*as\x2Estarware\x2EcomOS\x2FSSKCstech\x2Eweb-nexus\x2Enet
(assert (str.in.re X (re.++ (str.to.re "AdTools") (re.union (str.to.re " ") (str.to.re "\x09") (str.to.re "\x0a") (str.to.re "\x0c") (str.to.re "\x0d")) (str.to.re "downloadfile.org") (re.+ (re.union (re.range "0" "9") (re.range "A" "Z") (re.range "a" "z") (str.to.re "_"))) (str.to.re "com>") (re.* (re.union (str.to.re "\x0a") (str.to.re "\x0d"))) (str.to.re "as.starware.comOS/SSKCstech.web-nexus.net\x0a"))))
; Host\x3A\supgrade\x2Eqsrch\x2Einfox2Fie\.aspdcww\x2Edmcast\x2Ecom
(assert (str.in.re X (re.++ (str.to.re "Host:") (re.union (str.to.re " ") (str.to.re "\x09") (str.to.re "\x0a") (str.to.re "\x0c") (str.to.re "\x0d")) (str.to.re "upgrade.qsrch.infox2Fie.aspdcww.dmcast.com\x0a"))))
(check-sat)
